10	5
0	5	1	2	3	5	4
1	1	7
2	1	10
3	1	10
4	1	6
5	1	8
6	3	9	7	8
7	1	11
8	1	11
9	1	11
10	1	11
11	0
0	0	0	0	0	0	0
1	4	3	4	4	4	3
2	8	3	0	4	2	1
3	8	3	0	4	0	0
4	7	3	1	2	0	4
5	4	2	4	2	5	1
6	1	1	5	5	5	3
7	7	0	0	5	5	3
8	10	2	0	0	5	0
9	4	0	2	4	0	5
10	9	3	1	3	4	2
11	0	0	0	0	0	0
6	10	9	10	9
